(set-logic QF_S)
(declare-fun B () String)
(declare-fun D () String)
(declare-fun A () String)
(assert (= (str.++  "babcacbbccbaabbbaabb" D "abaab")  (str.++  "babcacbbccba" A "bcbcacaaaaccbaabaaabbabaab") ))
(assert (= (str.++  "babaababaabaaacaaacacbbbb" B "cabbaacbcabbccacaccaab")  (str.++  "babaababaabaaacaaacacbbbb" B "cabbaacbcabbccacaccaab") ))
(assert (= (str.++  "aaccbcbababcbabaaacbbbbcbacccbcacabbaaabcccccabbaabcba" "")  (str.++  "aaccbcbababcbabaaacbbbbcb" B "cabbaaabcccccabbaabcba") ))
(assert (= (str.++  "abbccaabccacbcaabbbcabaaaacbcccaacccbcaabbbabbbccbcbba" "")  (str.++  "abbccaabccacbcaabbbcabaaaacbccca" B "abbbabbbccbcbba") ))
(assert (= (str.++  "aabbccbaabcaabb" B "cbbcbabcbbcbbcbcbabbccbabbbbbcbc")  (str.++  "aabbccbaabcaabbacccbcacbbcbabcbbcbbcbcbabbccbabbbbbcbc" "") ))
(assert (= (str.++  "cb" B "bacabcbacabccbcabbbbabcaaabcabaaaacbaabaabaca")  (str.++  "cb" B "bacabcbacabccbcabbbbabcaaabcabaaaacbaabaabaca") ))
(assert (= (str.++  "bcbcbb" B "acacbcbaabcbcbbabababbcbabbbccabccabbcbab")  (str.++  "bcbcbb" B "acacbcbaabcbcbbabababbcbabbbccabccabbcbab") ))
(assert (= (str.++  "ccbcacbbacccbcaaabbacbaacaacbbcabbacaaaaaababcabbccbac" "")  (str.++  "ccbcacbb" B "aabbacbaacaacbbcabbacaaaaaababcabbccbac") ))
(assert (= (str.++  "bbbaccaacbacabcaaabacaaaaacacaabccaacabbcaacccbcabbccc" "")  (str.++  "bbbaccaacbacabcaaabacaaaaacacaabccaacabbca" B "bbccc") ))
(assert (= (str.++  "bccacccbcaabccacaaacabaacaccaaacbbaabbccabaccccabbbbac" "")  (str.++  "bcc" B "abccacaaacabaacaccaaacbbaabbccabaccccabbbbac") ))
(check-sat)
(get-model)
